# 69179
param n := 25;
param s := 1;
set E :=  (0,13) (0,19) (0,20) (1,2) (1,10) (2,5) (2,15) (2,19) (3,4) (3,11) (3,20) (4,12) (4,14) (4,15) (5,7) (6,14) (6,21) (7,8) (7,9) (7,10) (7,20) (8,15) (8,22) (9,20) (9,21) (11,17) (11,21) (12,17) (12,22) (13,23) (14,21) (16,19) (16,21) (17,19) (17,24) (18,23) (19,23);
